Nodes = {"0", "1", "2", "3", "4", "5", "6", "7", "8", "9"};
Arcs = {<"0","1",20,0>, <"0","9",20,0>, <"0","2",20,15>, <"0","3",20,3>, <"0","4",20,10>, <"0","5",20,12>, <"0","6",20,11>, <"1","2",20,0>, <"1","3",20,27>, <"1","4",20,15>, <"1","5",20,27>, <"1","6",20,28>, <"2","3",20,0>, <"2","4",20,9>, <"2","5",20,15>, <"2","6",20,17>, <"3","4",20,0>, <"3","5",20,0>, <"3","6",20,12>, <"4","5",20,0>, <"4","6",20,17>, <"5","6",20,0>, <"6","7",20,0>, <"7","8",20,0>, <"8","9",20,0>, };
Demands = {<"0","1",2,0>, <"0","2",4,0>, <"0","3",6,0>, <"0","4",8,0>, <"0","5",10,0>, <"0","6",12,0>, <"1","0",2,0>, <"1","2",2,0>, <"1","3",4,0>, <"1","4",6,0>, <"1","5",8,0>, <"1","6",10,0>, <"2","0",4,0>, <"2","1",2,0>, <"2","3",2,0>, <"2","4",4,0>, <"2","5",6,1>, <"2","6",8,0>, <"3","0",6,0>, <"3","1",4,0>, <"3","2",2,0>, <"3","4",2,0>, <"3","5",4,0>, <"3","6",6,0>, <"4","0",8,0>, <"4","1",6,0>, <"4","2",4,0>, <"4","3",2,0>, <"4","5",2,0>, <"4","6",4,1>, <"5","0",10,0>, <"5","1",8,0>, <"5","2",6,0>, <"5","3",4,0>, <"5","4",2,0>, <"5","6",2,0>, <"6","0",12,0>, <"6","1",10,0>, <"6","2",8,1>, <"6","3",6,0>, <"6","4",4,0>, <"6","5",2,0>, <"6","2",8,1>, <"4","6",4,1>, <"6","2",8,1>, <"2","5",6,1>};
